c This is QMaxSAT 2017 based on 14.07
c This is Glucose 3.0
c This is MiniSat 2.2.0
c WARNING: for repeatability, setting FPU to use double precision
c card = mrwto, comp = 0, pmodel = 0, narr = 25, mct = 76, verb = 0
cr firstCPXsol 0 0 0
c top = 189219
c |  Number of variables:    20000                                            |
c |  Number of clauses:      1653200                                          |
c |  Weight of hard clauses: 189219                                           |
c |  Number of soft clauses: 232500                                           |
c |  Number of unit soft clauses: 0                                           |
c |  Maximum Cardinality (by unit): 7569650      (0           )               |
c last restart ## conflicts  :  0 5673 
o 896 | cpuTime 0.455849 s
c Sum of weights = 302786
c A number of soft clauses remained = 9300
c MRWTO encoding for Pseudo-Boolean Constraints
c sizeMax=896
c No.0 Divisor=10	generated by pow1
c No.1 Divisor=10	generated by pow1
c No.2 Divisor=10	generated by pow1
c p0= 10	p1= 10	p2= 10	
c number of digits = 4
c linkingVar[0].size = 10, linkingVar[1].size = 10, linkingVar[2].size = 9, linkingVar[3].size = 1, 
c Pseudo-Boolean Constraints: 168490 variables and 1338356 clauses
c Sum of weights = 302786
c A number of soft clauses remained = 9300
c MRWTO encoding for Pseudo-Boolean Constraints
c sizeMax=896
c No.0 Divisor=10	generated by pow1
c No.1 Divisor=10	generated by pow1
c No.2 Divisor=10	generated by pow1
c p0= 10	p1= 10	p2= 10	
c number of digits = 4
c linkingVar[0].size = 10, linkingVar[1].size = 10, linkingVar[2].size = 9, linkingVar[3].size = 1, 
c Pseudo-Boolean Constraints: 168490 variables and 1338356 clauses
c Sum of weights = 302786
c A number of soft clauses remained = 9300
c MRWTO encoding for Pseudo-Boolean Constraints
c sizeMax=896
c No.0 Divisor=10	generated by pow1
c No.1 Divisor=10	generated by pow1
c No.2 Divisor=10	generated by pow1
c p0= 10	p1= 10	p2= 10	
c number of digits = 4
c linkingVar[0].size = 10, linkingVar[1].size = 10, linkingVar[2].size = 9, linkingVar[3].size = 1, 
c Pseudo-Boolean Constraints: 168490 variables and 1338356 clauses
c Sum of weights = 302786
c A number of soft clauses remained = 9300
c MRWTO encoding for Pseudo-Boolean Constraints
c sizeMax=896
c No.0 Divisor=10	generated by pow1
c No.1 Divisor=10	generated by pow1
c No.2 Divisor=10	generated by pow1
c p0= 10	p1= 10	p2= 10	
c number of digits = 4
c linkingVar[0].size = 10, linkingVar[1].size = 10, linkingVar[2].size = 9, linkingVar[3].size = 1, 
c Pseudo-Boolean Constraints: 168490 variables and 1338356 clauses
c Sum of weights = 302786
c A number of soft clauses remained = 9300
c MRWTO encoding for Pseudo-Boolean Constraints
c sizeMax=896
c No.0 Divisor=10	generated by pow1
c No.1 Divisor=10	generated by pow1
c No.2 Divisor=10	generated by pow1
c p0= 10	p1= 10	p2= 10	
c number of digits = 4
c linkingVar[0].size = 10, linkingVar[1].size = 10, linkingVar[2].size = 9, linkingVar[3].size = 1, 
c Pseudo-Boolean Constraints: 168490 variables and 1338356 clauses
c Sum of weights = 302786
c A number of soft clauses remained = 9300
c MRWTO encoding for Pseudo-Boolean Constraints
c sizeMax=896
c No.0 Divisor=10	generated by pow1
c No.1 Divisor=10	generated by pow1
c No.2 Divisor=10	generated by pow1
c p0= 10	p1= 10	p2= 10	
c number of digits = 4
c linkingVar[0].size = 10, linkingVar[1].size = 10, linkingVar[2].size = 9, linkingVar[3].size = 1, 
c Pseudo-Boolean Constraints: 168490 variables and 1338356 clauses
c Sum of weights = 302786
c A number of soft clauses remained = 9300
c MRWTO encoding for Pseudo-Boolean Constraints
c sizeMax=896
c No.0 Divisor=10	generated by pow1
c No.1 Divisor=10	generated by pow1
c No.2 Divisor=10	generated by pow1
c p0= 10	p1= 10	p2= 10	
c number of digits = 4
c linkingVar[0].size = 10, linkingVar[1].size = 10, linkingVar[2].size = 9, linkingVar[3].size = 1, 
c Pseudo-Boolean Constraints: 168490 variables and 1338356 clauses
c Sum of weights = 302786
c A number of soft clauses remained = 9300
c MRWTO encoding for Pseudo-Boolean Constraints
c sizeMax=896
c No.0 Divisor=10	generated by pow1
c No.1 Divisor=10	generated by pow1
c No.2 Divisor=10	generated by pow1
c p0= 10	p1= 10	p2= 10	
c number of digits = 4
c linkingVar[0].size = 10, linkingVar[1].size = 10, linkingVar[2].size = 9, linkingVar[3].size = 1, 
c Pseudo-Boolean Constraints: 168490 variables and 1338356 clauses
c Sum of weights = 302786
c A number of soft clauses remained = 9300
c MRWTO encoding for Pseudo-Boolean Constraints
c sizeMax=896
c No.0 Divisor=10	generated by pow1
c No.1 Divisor=10	generated by pow1
c No.2 Divisor=10	generated by pow1
c p0= 10	p1= 10	p2= 10	
c number of digits = 4
c linkingVar[0].size = 10, linkingVar[1].size = 10, linkingVar[2].size = 9, linkingVar[3].size = 1, 
c Pseudo-Boolean Constraints: 168490 variables and 1338356 clauses
c Sum of weights = 302786
c A number of soft clauses remained = 9300
c MRWTO encoding for Pseudo-Boolean Constraints
c sizeMax=896
c No.0 Divisor=10	generated by pow1
c No.1 Divisor=10	generated by pow1
c No.2 Divisor=10	generated by pow1
c p0= 10	p1= 10	p2= 10	
c number of digits = 4
c linkingVar[0].size = 10, linkingVar[1].size = 10, linkingVar[2].size = 9, linkingVar[3].size = 1, 
c Pseudo-Boolean Constraints: 168490 variables and 1338356 clauses
c Sum of weights = 302786
c A number of soft clauses remained = 9300
c MRWTO encoding for Pseudo-Boolean Constraints
c sizeMax=896
c No.0 Divisor=10	generated by pow1
c No.1 Divisor=10	generated by pow1
c No.2 Divisor=10	generated by pow1
c p0= 10	p1= 10	p2= 10	
c number of digits = 4
c linkingVar[0].size = 10, linkingVar[1].size = 10, linkingVar[2].size = 9, linkingVar[3].size = 1, 
c Pseudo-Boolean Constraints: 168490 variables and 1338356 clauses
c Sum of weights = 302786
c A number of soft clauses remained = 9300
c MRWTO encoding for Pseudo-Boolean Constraints
c sizeMax=896
c No.0 Divisor=10	generated by pow1
c No.1 Divisor=10	generated by pow1
c No.2 Divisor=10	generated by pow1
c p0= 10	p1= 10	p2= 10	
c number of digits = 4
c linkingVar[0].size = 10, linkingVar[1].size = 10, linkingVar[2].size = 9, linkingVar[3].size = 1, 
c Pseudo-Boolean Constraints: 168490 variables and 1338356 clauses
c Sum of weights = 302786
c A number of soft clauses remained = 9300
c MRWTO encoding for Pseudo-Boolean Constraints
c sizeMax=896
c No.0 Divisor=10	generated by pow1
c No.1 Divisor=10	generated by pow1
c No.2 Divisor=10	generated by pow1
c p0= 10	p1= 10	p2= 10	
c number of digits = 4
c linkingVar[0].size = 10, linkingVar[1].size = 10, linkingVar[2].size = 9, linkingVar[3].size = 1, 
c Pseudo-Boolean Constraints: 168490 variables and 1338356 clauses
c Sum of weights = 302786
c A number of soft clauses remained = 9300
c MRWTO encoding for Pseudo-Boolean Constraints
c sizeMax=896
c No.0 Divisor=10	generated by pow1
c No.1 Divisor=10	generated by pow1
c No.2 Divisor=10	generated by pow1
c p0= 10	p1= 10	p2= 10	
c number of digits = 4
c linkingVar[0].size = 10, linkingVar[1].size = 10, linkingVar[2].size = 9, linkingVar[3].size = 1, 
c Pseudo-Boolean Constraints: 168490 variables and 1338356 clauses
c Sum of weights = 302786
c A number of soft clauses remained = 9300
c MRWTO encoding for Pseudo-Boolean Constraints
c sizeMax=896
c No.0 Divisor=10	generated by pow1
c No.1 Divisor=10	generated by pow1
c No.2 Divisor=10	generated by pow1
c p0= 10	p1= 10	p2= 10	
c number of digits = 4
c linkingVar[0].size = 10, linkingVar[1].size = 10, linkingVar[2].size = 9, linkingVar[3].size = 1, 
c Pseudo-Boolean Constraints: 168490 variables and 1338356 clauses
c Sum of weights = 302786
c A number of soft clauses remained = 9300
c MRWTO encoding for Pseudo-Boolean Constraints
c sizeMax=896
c No.0 Divisor=10	generated by pow1
c No.1 Divisor=10	generated by pow1
c No.2 Divisor=10	generated by pow1
c p0= 10	p1= 10	p2= 10	
c number of digits = 4
c linkingVar[0].size = 10, linkingVar[1].size = 10, linkingVar[2].size = 9, linkingVar[3].size = 1, 
c Pseudo-Boolean Constraints: 168490 variables and 1338356 clauses
c Sum of weights = 302786
c A number of soft clauses remained = 9300
c MRWTO encoding for Pseudo-Boolean Constraints
c sizeMax=896
c No.0 Divisor=10	generated by pow1
c No.1 Divisor=10	generated by pow1
c No.2 Divisor=10	generated by pow1
c p0= 10	p1= 10	p2= 10	
c number of digits = 4
c linkingVar[0].size = 10, linkingVar[1].size = 10, linkingVar[2].size = 9, linkingVar[3].size = 1, 
c Pseudo-Boolean Constraints: 168490 variables and 1338356 clauses
c Sum of weights = 302786
c A number of soft clauses remained = 9300
c MRWTO encoding for Pseudo-Boolean Constraints
c sizeMax=896
c No.0 Divisor=10	generated by pow1
c No.1 Divisor=10	generated by pow1
c No.2 Divisor=10	generated by pow1
c p0= 10	p1= 10	p2= 10	
c number of digits = 4
c linkingVar[0].size = 10, linkingVar[1].size = 10, linkingVar[2].size = 9, linkingVar[3].size = 1, 
c Pseudo-Boolean Constraints: 168490 variables and 1338356 clauses
c Sum of weights = 302786
c A number of soft clauses remained = 9300
c MRWTO encoding for Pseudo-Boolean Constraints
c sizeMax=896
c No.0 Divisor=10	generated by pow1
c No.1 Divisor=10	generated by pow1
c No.2 Divisor=10	generated by pow1
c p0= 10	p1= 10	p2= 10	
c number of digits = 4
c linkingVar[0].size = 10, linkingVar[1].size = 10, linkingVar[2].size = 9, linkingVar[3].size = 1, 
c Pseudo-Boolean Constraints: 168490 variables and 1338356 clauses
c Sum of weights = 302786
c A number of soft clauses remained = 9300
c MRWTO encoding for Pseudo-Boolean Constraints
c sizeMax=896
c No.0 Divisor=10	generated by pow1
c No.1 Divisor=10	generated by pow1
c No.2 Divisor=10	generated by pow1
c p0= 10	p1= 10	p2= 10	
c number of digits = 4
c linkingVar[0].size = 10, linkingVar[1].size = 10, linkingVar[2].size = 9, linkingVar[3].size = 1, 
c Pseudo-Boolean Constraints: 168490 variables and 1338356 clauses
c Sum of weights = 302786
c A number of soft clauses remained = 9300
c MRWTO encoding for Pseudo-Boolean Constraints
c sizeMax=896
c No.0 Divisor=10	generated by pow1
c No.1 Divisor=10	generated by pow1
c No.2 Divisor=10	generated by pow1
c p0= 10	p1= 10	p2= 10	
c number of digits = 4
c linkingVar[0].size = 10, linkingVar[1].size = 10, linkingVar[2].size = 9, linkingVar[3].size = 1, 
c Pseudo-Boolean Constraints: 168490 variables and 1338356 clauses
c Sum of weights = 302786
c A number of soft clauses remained = 9300
c MRWTO encoding for Pseudo-Boolean Constraints
c sizeMax=896
c No.0 Divisor=10	generated by pow1
c No.1 Divisor=10	generated by pow1
c No.2 Divisor=10	generated by pow1
c p0= 10	p1= 10	p2= 10	
c number of digits = 4
c linkingVar[0].size = 10, linkingVar[1].size = 10, linkingVar[2].size = 9, linkingVar[3].size = 1, 
c Pseudo-Boolean Constraints: 168490 variables and 1338356 clauses
c Sum of weights = 302786
c A number of soft clauses remained = 9300
c MRWTO encoding for Pseudo-Boolean Constraints
c sizeMax=896
c No.0 Divisor=10	generated by pow1
c No.1 Divisor=10	generated by pow1
c No.2 Divisor=10	generated by pow1
c p0= 10	p1= 10	p2= 10	
c number of digits = 4
c linkingVar[0].size = 10, linkingVar[1].size = 10, linkingVar[2].size = 9, linkingVar[3].size = 1, 
c Pseudo-Boolean Constraints: 168490 variables and 1338356 clauses
c Sum of weights = 302786
c A number of soft clauses remained = 9300
c MRWTO encoding for Pseudo-Boolean Constraints
c sizeMax=896
c No.0 Divisor=10	generated by pow1
c No.1 Divisor=10	generated by pow1
c No.2 Divisor=10	generated by pow1
c p0= 10	p1= 10	p2= 10	
c number of digits = 4
c linkingVar[0].size = 10, linkingVar[1].size = 10, linkingVar[2].size = 9, linkingVar[3].size = 1, 
c Pseudo-Boolean Constraints: 168490 variables and 1338356 clauses
c Sum of weights = 302786
c A number of soft clauses remained = 9300
c MRWTO encoding for Pseudo-Boolean Constraints
c sizeMax=896
c No.0 Divisor=10	generated by pow1
c No.1 Divisor=10	generated by pow1
c No.2 Divisor=10	generated by pow1
c p0= 10	p1= 10	p2= 10	
c number of digits = 4
c linkingVar[0].size = 10, linkingVar[1].size = 10, linkingVar[2].size = 9, linkingVar[3].size = 1, 
c Pseudo-Boolean Constraints: 168490 variables and 1338356 clauses
c last restart ## conflicts  :  282 58043 
o 475 | cpuTime 11.6747 s
c last restart ## conflicts  :  153 62865 
o 279 | cpuTime 23.3133 s
c last restart ## conflicts  :  365 91990 
o 266 | cpuTime 63.2881 s
c last restart ## conflicts  :  817 75923 
o 218 | cpuTime 102.445 s
c last restart ## conflicts  :  367 24512 
o 216 | cpuTime 151.873 s
c last restart ## conflicts  :  430 44111 
o 209 | cpuTime 343.155 s
c last restart ## conflicts  :  462 44577 
o 208 | cpuTime 608.527 s
c last restart ## conflicts  :  190 26822 
o 192 | cpuTime 1893.5 s
c last restart ## conflicts  :  420 56868 
o 187 | cpuTime 1980.61 s
s UNKNOWN
c Search is stopped by a limit (maybe time-limit)
cr positiVarArr: [ | 53(1->29) | 142(1->18) | 237(1->13) | 333(1->9) | 431(1->7) | 573(1->49) | 696(1->72) | 783(1->59) | 864(1->40) | 985(1->61) | 1055(1->31) | 1147(1->23) | 1266(1->42) | 1379(1->55) | 1460(1->36) | 1550(1->26) | 1648(1->24) | 1744(1->20) | 1832(1->8) | 1939(1->15) | 2086(1->62) | 2145(1->21) | 2243(1->19) | 2380(1->56) | 2487(1->63) | 2520(2->1) | 2607(3->1) | 2769(4->45) | 2861(5->37) | 2913(6->1) | 3011(7->1) | 3177(8->53) | 3201(9->1) | 3390(10->66) | 3406(11->1) | 3516(12->1) | 3619(13->1) | 3714(14->1) | 3840(15->16) | 3967(16->43) | 4036(17->12) | 4124(18->1) | 4251(19->27) | 4370(20->46) | 4429(21->5) | 4527(22->3) | 4691(23->67) | 4774(24->50) | 4830(25->6) | 4926(26->2) | 5072(27->48) | 5115(28->1) | 5238(29->14) | 5375(30->51) | 5482(31->58) | 5510(32->1) | 5604(33->1) | 5752(34->28) | 5846(35->22) | 5993(36->69) | 6003(37->1) | 6117(38->1) | 6265(39->41) | 6349(40->25) | 6425(41->1) | 6588(42->64) | 6602(43->1) | 6763(44->39) | 6898(45->74) | 6958(46->34) | 7068(47->44) | 7181(48->57) | 7297(49->73) | 7362(50->38) | 7441(51->17) | 7523(52->1) | 7609(53->1) | 7722(54->1) | 7805(55->1) | 7971(56->47) | 8057(57->33) | 8118(58->1) | 8259(59->35) | 8394(60->70) | 8495(61->71) | 8589(62->65) | 8608(63->1) | 8754(64->30) | 8834(65->10) | 8935(66->11) | 9076(67->52) | 9199(68->75) | 9278(69->54) | 9392(70->68) | 9484(71->60) | 9600(72->76) | 9621(73->1) | 9712(74->1) | 9828(75->4) | 9956(76->32) | ]
cr the 1-th chain: [ 1->29->14->1 ] (#non-depot=2) {#cumul.=3}
cr the 2-th chain: [ 1->18->1 ] (#non-depot=1) {#cumul.=4}
cr the 3-th chain: [ 1->13->1 ] (#non-depot=1) {#cumul.=5}
cr the 4-th chain: [ 1->9->1 ] (#non-depot=1) {#cumul.=6}
cr the 5-th chain: [ 1->7->1 ] (#non-depot=1) {#cumul.=7}
cr the 6-th chain: [ 1->49->73->1 ] (#non-depot=2) {#cumul.=9}
cr the 7-th chain: [ 1->72->76->32->1 ] (#non-depot=3) {#cumul.=12}
cr the 8-th chain: [ 1->59->35->22->3->1 ] (#non-depot=4) {#cumul.=16}
cr the 9-th chain: [ 1->40->25->6->1 ] (#non-depot=3) {#cumul.=19}
cr the 10-th chain: [ 1->61->71->60->70->68->75->4->45->74->1 ] (#non-depot=9) {#cumul.=28}
cr the 11-th chain: [ 1->31->58->1 ] (#non-depot=2) {#cumul.=30}
cr the 12-th chain: [ 1->23->67->52->1 ] (#non-depot=3) {#cumul.=33}
cr the 13-th chain: [ 1->42->64->30->51->17->12->1 ] (#non-depot=6) {#cumul.=39}
cr the 14-th chain: [ 1->55->1 ] (#non-depot=1) {#cumul.=40}
cr the 15-th chain: [ 1->36->69->54->1 ] (#non-depot=3) {#cumul.=43}
cr the 16-th chain: [ 1->26->2->1 ] (#non-depot=2) {#cumul.=45}
cr the 17-th chain: [ 1->24->50->38->1 ] (#non-depot=3) {#cumul.=48}
cr the 18-th chain: [ 1->20->46->34->28->1 ] (#non-depot=4) {#cumul.=52}
cr the 19-th chain: [ 1->8->53->1 ] (#non-depot=2) {#cumul.=54}
cr the 20-th chain: [ 1->15->16->43->1 ] (#non-depot=3) {#cumul.=57}
cr the 21-th chain: [ 1->62->65->10->66->11->1 ] (#non-depot=5) {#cumul.=62}
cr the 22-th chain: [ 1->21->5->37->1 ] (#non-depot=3) {#cumul.=65}
cr the 23-th chain: [ 1->19->27->48->57->33->1 ] (#non-depot=5) {#cumul.=70}
cr the 24-th chain: [ 1->56->47->44->39->41->1 ] (#non-depot=5) {#cumul.=75}
cr the 25-th chain: [ 1->63->1 ] (#non-depot=1) {#cumul.=76}
c Latest Answer = 0 by 10 loops
c restarts              : 17335
c conflicts             : 2560269        (711 /sec)
c decisions             : 161925011      (0.00 % random) (44997 /sec)
c propagations          : 34931642832    (9707081 /sec)
c conflict literals     : 465613578      (28.39 % deleted)
c Memory used           : 3956.00 MB
c CPU time              : 3598.57 s
